p cnf 120 1330
1 2 3 0
4 5 6 0
7 8 9 0
10 11 12 0
13 14 15 0
16 17 18 0
19 20 21 0
22 23 24 0
25 26 27 0
28 29 30 0
31 32 33 0
34 35 36 0
37 38 39 0
40 41 42 0
43 44 45 0
46 47 48 0
49 50 51 0
52 53 54 0
55 56 57 0
58 59 60 0
61 62 63 0
64 65 66 0
67 68 69 0
70 71 72 0
73 74 75 0
76 77 78 0
79 80 81 0
82 83 84 0
85 86 87 0
88 89 90 0
91 92 93 0
94 95 96 0
97 98 99 0
100 101 102 0
103 104 105 0
106 107 108 0
109 110 111 0
112 113 114 0
115 116 117 0
118 119 120 0
-1 -2 0
-1 -3 0
-2 -3 0
-4 -5 0
-4 -6 0
-5 -6 0
-7 -8 0
-7 -9 0
-8 -9 0
-10 -11 0
-10 -12 0
-11 -12 0
-13 -14 0
-13 -15 0
-14 -15 0
-16 -17 0
-16 -18 0
-17 -18 0
-19 -20 0
-19 -21 0
-20 -21 0
-22 -23 0
-22 -24 0
-23 -24 0
-25 -26 0
-25 -27 0
-26 -27 0
-28 -29 0
-28 -30 0
-29 -30 0
-31 -32 0
-31 -33 0
-32 -33 0
-34 -35 0
-34 -36 0
-35 -36 0
-37 -38 0
-37 -39 0
-38 -39 0
-40 -41 0
-40 -42 0
-41 -42 0
-43 -44 0
-43 -45 0
-44 -45 0
-46 -47 0
-46 -48 0
-47 -48 0
-49 -50 0
-49 -51 0
-50 -51 0
-52 -53 0
-52 -54 0
-53 -54 0
-55 -56 0
-55 -57 0
-56 -57 0
-58 -59 0
-58 -60 0
-59 -60 0
-61 -62 0
-61 -63 0
-62 -63 0
-64 -65 0
-64 -66 0
-65 -66 0
-67 -68 0
-67 -69 0
-68 -69 0
-70 -71 0
-70 -72 0
-71 -72 0
-73 -74 0
-73 -75 0
-74 -75 0
-76 -77 0
-76 -78 0
-77 -78 0
-79 -80 0
-79 -81 0
-80 -81 0
-82 -83 0
-82 -84 0
-83 -84 0
-85 -86 0
-85 -87 0
-86 -87 0
-88 -89 0
-88 -90 0
-89 -90 0
-91 -92 0
-91 -93 0
-92 -93 0
-94 -95 0
-94 -96 0
-95 -96 0
-97 -98 0
-97 -99 0
-98 -99 0
-100 -101 0
-100 -102 0
-101 -102 0
-103 -104 0
-103 -105 0
-104 -105 0
-106 -107 0
-106 -108 0
-107 -108 0
-109 -110 0
-109 -111 0
-110 -111 0
-112 -113 0
-112 -114 0
-113 -114 0
-115 -116 0
-115 -117 0
-116 -117 0
-118 -119 0
-118 -120 0
-119 -120 0
-1 -10 0
-2 -11 0
-3 -12 0
-1 -19 0
-2 -20 0
-3 -21 0
-1 -22 0
-2 -23 0
-3 -24 0
-1 -28 0
-2 -29 0
-3 -30 0
-1 -37 0
-2 -38 0
-3 -39 0
-1 -40 0
-2 -41 0
-3 -42 0
-1 -46 0
-2 -47 0
-3 -48 0
-1 -52 0
-2 -53 0
-3 -54 0
-1 -58 0
-2 -59 0
-3 -60 0
-1 -61 0
-2 -62 0
-3 -63 0
-1 -70 0
-2 -71 0
-3 -72 0
-1 -76 0
-2 -77 0
-3 -78 0
-1 -79 0
-2 -80 0
-3 -81 0
-1 -82 0
-2 -83 0
-3 -84 0
-1 -88 0
-2 -89 0
-3 -90 0
-1 -91 0
-2 -92 0
-3 -93 0
-1 -100 0
-2 -101 0
-3 -102 0
-1 -103 0
-2 -104 0
-3 -105 0
-1 -106 0
-2 -107 0
-3 -108 0
-1 -109 0
-2 -110 0
-3 -111 0
-1 -118 0
-2 -119 0
-3 -120 0
-4 -7 0
-5 -8 0
-6 -9 0
-4 -16 0
-5 -17 0
-6 -18 0
-4 -22 0
-5 -23 0
-6 -24 0
-4 -31 0
-5 -32 0
-6 -33 0
-4 -37 0
-5 -38 0
-6 -39 0
-4 -43 0
-5 -44 0
-6 -45 0
-4 -46 0
-5 -47 0
-6 -48 0
-4 -58 0
-5 -59 0
-6 -60 0
-4 -64 0
-5 -65 0
-6 -66 0
-4 -73 0
-5 -74 0
-6 -75 0
-4 -79 0
-5 -80 0
-6 -81 0
-4 -85 0
-5 -86 0
-6 -87 0
-4 -88 0
-5 -89 0
-6 -90 0
-4 -91 0
-5 -92 0
-6 -93 0
-4 -97 0
-5 -98 0
-6 -99 0
-4 -100 0
-5 -101 0
-6 -102 0
-4 -103 0
-5 -104 0
-6 -105 0
-4 -109 0
-5 -110 0
-6 -111 0
-4 -112 0
-5 -113 0
-6 -114 0
-4 -115 0
-5 -116 0
-6 -117 0
-7 -19 0
-8 -20 0
-9 -21 0
-7 -25 0
-8 -26 0
-9 -27 0
-7 -37 0
-8 -38 0
-9 -39 0
-7 -40 0
-8 -41 0
-9 -42 0
-7 -49 0
-8 -50 0
-9 -51 0
-7 -52 0
-8 -53 0
-9 -54 0
-7 -64 0
-8 -65 0
-9 -66 0
-7 -70 0
-8 -71 0
-9 -72 0
-7 -73 0
-8 -74 0
-9 -75 0
-7 -76 0
-8 -77 0
-9 -78 0
-7 -79 0
-8 -80 0
-9 -81 0
-7 -85 0
-8 -86 0
-9 -87 0
-7 -88 0
-8 -89 0
-9 -90 0
-7 -91 0
-8 -92 0
-9 -93 0
-7 -94 0
-8 -95 0
-9 -96 0
-7 -97 0
-8 -98 0
-9 -99 0
-7 -100 0
-8 -101 0
-9 -102 0
-7 -103 0
-8 -104 0
-9 -105 0
-7 -109 0
-8 -110 0
-9 -111 0
-7 -115 0
-8 -116 0
-9 -117 0
-10 -16 0
-11 -17 0
-12 -18 0
-10 -19 0
-11 -20 0
-12 -21 0
-10 -22 0
-11 -23 0
-12 -24 0
-10 -25 0
-11 -26 0
-12 -27 0
-10 -28 0
-11 -29 0
-12 -30 0
-10 -34 0
-11 -35 0
-12 -36 0
-10 -46 0
-11 -47 0
-12 -48 0
-10 -49 0
-11 -50 0
-12 -51 0
-10 -52 0
-11 -53 0
-12 -54 0
-10 -61 0
-11 -62 0
-12 -63 0
-10 -64 0
-11 -65 0
-12 -66 0
-10 -70 0
-11 -71 0
-12 -72 0
-10 -73 0
-11 -74 0
-12 -75 0
-10 -79 0
-11 -80 0
-12 -81 0
-10 -85 0
-11 -86 0
-12 -87 0
-10 -88 0
-11 -89 0
-12 -90 0
-10 -94 0
-11 -95 0
-12 -96 0
-10 -97 0
-11 -98 0
-12 -99 0
-10 -106 0
-11 -107 0
-12 -108 0
-10 -109 0
-11 -110 0
-12 -111 0
-10 -112 0
-11 -113 0
-12 -114 0
-13 -16 0
-14 -17 0
-15 -18 0
-13 -22 0
-14 -23 0
-15 -24 0
-13 -28 0
-14 -29 0
-15 -30 0
-13 -43 0
-14 -44 0
-15 -45 0
-13 -46 0
-14 -47 0
-15 -48 0
-13 -52 0
-14 -53 0
-15 -54 0
-13 -58 0
-14 -59 0
-15 -60 0
-13 -73 0
-14 -74 0
-15 -75 0
-13 -76 0
-14 -77 0
-15 -78 0
-13 -85 0
-14 -86 0
-15 -87 0
-13 -100 0
-14 -101 0
-15 -102 0
-13 -106 0
-14 -107 0
-15 -108 0
-13 -112 0
-14 -113 0
-15 -114 0
-13 -115 0
-14 -116 0
-15 -117 0
-16 -22 0
-17 -23 0
-18 -24 0
-16 -28 0
-17 -29 0
-18 -30 0
-16 -31 0
-17 -32 0
-18 -33 0
-16 -37 0
-17 -38 0
-18 -39 0
-16 -40 0
-17 -41 0
-18 -42 0
-16 -49 0
-17 -50 0
-18 -51 0
-16 -52 0
-17 -53 0
-18 -54 0
-16 -55 0
-17 -56 0
-18 -57 0
-16 -61 0
-17 -62 0
-18 -63 0
-16 -64 0
-17 -65 0
-18 -66 0
-16 -67 0
-17 -68 0
-18 -69 0
-16 -85 0
-17 -86 0
-18 -87 0
-16 -91 0
-17 -92 0
-18 -93 0
-16 -94 0
-17 -95 0
-18 -96 0
-16 -97 0
-17 -98 0
-18 -99 0
-16 -100 0
-17 -101 0
-18 -102 0
-16 -103 0
-17 -104 0
-18 -105 0
-16 -106 0
-17 -107 0
-18 -108 0
-16 -118 0
-17 -119 0
-18 -120 0
-19 -25 0
-20 -26 0
-21 -27 0
-19 -28 0
-20 -29 0
-21 -30 0
-19 -31 0
-20 -32 0
-21 -33 0
-19 -34 0
-20 -35 0
-21 -36 0
-19 -37 0
-20 -38 0
-21 -39 0
-19 -55 0
-20 -56 0
-21 -57 0
-19 -64 0
-20 -65 0
-21 -66 0
-19 -67 0
-20 -68 0
-21 -69 0
-19 -70 0
-20 -71 0
-21 -72 0
-19 -73 0
-20 -74 0
-21 -75 0
-19 -76 0
-20 -77 0
-21 -78 0
-19 -82 0
-20 -83 0
-21 -84 0
-19 -88 0
-20 -89 0
-21 -90 0
-19 -91 0
-20 -92 0
-21 -93 0
-19 -94 0
-20 -95 0
-21 -96 0
-19 -97 0
-20 -98 0
-21 -99 0
-19 -103 0
-20 -104 0
-21 -105 0
-19 -109 0
-20 -110 0
-21 -111 0
-19 -112 0
-20 -113 0
-21 -114 0
-19 -115 0
-20 -116 0
-21 -117 0
-19 -118 0
-20 -119 0
-21 -120 0
-22 -25 0
-23 -26 0
-24 -27 0
-22 -28 0
-23 -29 0
-24 -30 0
-22 -34 0
-23 -35 0
-24 -36 0
-22 -43 0
-23 -44 0
-24 -45 0
-22 -52 0
-23 -53 0
-24 -54 0
-22 -55 0
-23 -56 0
-24 -57 0
-22 -61 0
-23 -62 0
-24 -63 0
-22 -73 0
-23 -74 0
-24 -75 0
-22 -76 0
-23 -77 0
-24 -78 0
-22 -88 0
-23 -89 0
-24 -90 0
-22 -91 0
-23 -92 0
-24 -93 0
-22 -94 0
-23 -95 0
-24 -96 0
-22 -106 0
-23 -107 0
-24 -108 0
-22 -109 0
-23 -110 0
-24 -111 0
-22 -112 0
-23 -113 0
-24 -114 0
-25 -37 0
-26 -38 0
-27 -39 0
-25 -40 0
-26 -41 0
-27 -42 0
-25 -43 0
-26 -44 0
-27 -45 0
-25 -46 0
-26 -47 0
-27 -48 0
-25 -61 0
-26 -62 0
-27 -63 0
-25 -70 0
-26 -71 0
-27 -72 0
-25 -73 0
-26 -74 0
-27 -75 0
-25 -76 0
-26 -77 0
-27 -78 0
-25 -79 0
-26 -80 0
-27 -81 0
-25 -82 0
-26 -83 0
-27 -84 0
-25 -85 0
-26 -86 0
-27 -87 0
-25 -88 0
-26 -89 0
-27 -90 0
-25 -94 0
-26 -95 0
-27 -96 0
-25 -97 0
-26 -98 0
-27 -99 0
-25 -106 0
-26 -107 0
-27 -108 0
-25 -109 0
-26 -110 0
-27 -111 0
-28 -34 0
-29 -35 0
-30 -36 0
-28 -40 0
-29 -41 0
-30 -42 0
-28 -49 0
-29 -50 0
-30 -51 0
-28 -52 0
-29 -53 0
-30 -54 0
-28 -55 0
-29 -56 0
-30 -57 0
-28 -61 0
-29 -62 0
-30 -63 0
-28 -70 0
-29 -71 0
-30 -72 0
-28 -73 0
-29 -74 0
-30 -75 0
-28 -76 0
-29 -77 0
-30 -78 0
-28 -79 0
-29 -80 0
-30 -81 0
-28 -94 0
-29 -95 0
-30 -96 0
-28 -97 0
-29 -98 0
-30 -99 0
-28 -100 0
-29 -101 0
-30 -102 0
-28 -103 0
-29 -104 0
-30 -105 0
-28 -115 0
-29 -116 0
-30 -117 0
-28 -118 0
-29 -119 0
-30 -120 0
-31 -34 0
-32 -35 0
-33 -36 0
-31 -40 0
-32 -41 0
-33 -42 0
-31 -43 0
-32 -44 0
-33 -45 0
-31 -58 0
-32 -59 0
-33 -60 0
-31 -61 0
-32 -62 0
-33 -63 0
-31 -64 0
-32 -65 0
-33 -66 0
-31 -67 0
-32 -68 0
-33 -69 0
-31 -70 0
-32 -71 0
-33 -72 0
-31 -76 0
-32 -77 0
-33 -78 0
-31 -88 0
-32 -89 0
-33 -90 0
-31 -91 0
-32 -92 0
-33 -93 0
-31 -94 0
-32 -95 0
-33 -96 0
-31 -100 0
-32 -101 0
-33 -102 0
-31 -109 0
-32 -110 0
-33 -111 0
-34 -37 0
-35 -38 0
-36 -39 0
-34 -40 0
-35 -41 0
-36 -42 0
-34 -49 0
-35 -50 0
-36 -51 0
-34 -67 0
-35 -68 0
-36 -69 0
-34 -70 0
-35 -71 0
-36 -72 0
-34 -73 0
-35 -74 0
-36 -75 0
-34 -82 0
-35 -83 0
-36 -84 0
-34 -85 0
-35 -86 0
-36 -87 0
-34 -91 0
-35 -92 0
-36 -93 0
-34 -100 0
-35 -101 0
-36 -102 0
-34 -103 0
-35 -104 0
-36 -105 0
-34 -106 0
-35 -107 0
-36 -108 0
-34 -118 0
-35 -119 0
-36 -120 0
-37 -55 0
-38 -56 0
-39 -57 0
-37 -58 0
-38 -59 0
-39 -60 0
-37 -70 0
-38 -71 0
-39 -72 0
-37 -76 0
-38 -77 0
-39 -78 0
-37 -82 0
-38 -83 0
-39 -84 0
-37 -85 0
-38 -86 0
-39 -87 0
-37 -88 0
-38 -89 0
-39 -90 0
-37 -94 0
-38 -95 0
-39 -96 0
-37 -97 0
-38 -98 0
-39 -99 0
-37 -106 0
-38 -107 0
-39 -108 0
-40 -46 0
-41 -47 0
-42 -48 0
-40 -55 0
-41 -56 0
-42 -57 0
-40 -61 0
-41 -62 0
-42 -63 0
-40 -70 0
-41 -71 0
-42 -72 0
-40 -73 0
-41 -74 0
-42 -75 0
-40 -82 0
-41 -83 0
-42 -84 0
-40 -112 0
-41 -113 0
-42 -114 0
-40 -115 0
-41 -116 0
-42 -117 0
-43 -52 0
-44 -53 0
-45 -54 0
-43 -58 0
-44 -59 0
-45 -60 0
-43 -61 0
-44 -62 0
-45 -63 0
-43 -70 0
-44 -71 0
-45 -72 0
-43 -73 0
-44 -74 0
-45 -75 0
-43 -76 0
-44 -77 0
-45 -78 0
-43 -79 0
-44 -80 0
-45 -81 0
-43 -88 0
-44 -89 0
-45 -90 0
-43 -91 0
-44 -92 0
-45 -93 0
-43 -100 0
-44 -101 0
-45 -102 0
-43 -103 0
-44 -104 0
-45 -105 0
-43 -106 0
-44 -107 0
-45 -108 0
-43 -112 0
-44 -113 0
-45 -114 0
-43 -118 0
-44 -119 0
-45 -120 0
-46 -49 0
-47 -50 0
-48 -51 0
-46 -55 0
-47 -56 0
-48 -57 0
-46 -61 0
-47 -62 0
-48 -63 0
-46 -70 0
-47 -71 0
-48 -72 0
-46 -73 0
-47 -74 0
-48 -75 0
-46 -79 0
-47 -80 0
-48 -81 0
-46 -85 0
-47 -86 0
-48 -87 0
-46 -88 0
-47 -89 0
-48 -90 0
-46 -94 0
-47 -95 0
-48 -96 0
-46 -97 0
-47 -98 0
-48 -99 0
-46 -100 0
-47 -101 0
-48 -102 0
-46 -106 0
-47 -107 0
-48 -108 0
-49 -52 0
-50 -53 0
-51 -54 0
-49 -58 0
-50 -59 0
-51 -60 0
-49 -61 0
-50 -62 0
-51 -63 0
-49 -73 0
-50 -74 0
-51 -75 0
-49 -79 0
-50 -80 0
-51 -81 0
-49 -82 0
-50 -83 0
-51 -84 0
-49 -85 0
-50 -86 0
-51 -87 0
-49 -88 0
-50 -89 0
-51 -90 0
-49 -94 0
-50 -95 0
-51 -96 0
-49 -97 0
-50 -98 0
-51 -99 0
-49 -100 0
-50 -101 0
-51 -102 0
-49 -106 0
-50 -107 0
-51 -108 0
-49 -109 0
-50 -110 0
-51 -111 0
-49 -118 0
-50 -119 0
-51 -120 0
-52 -58 0
-53 -59 0
-54 -60 0
-52 -61 0
-53 -62 0
-54 -63 0
-52 -70 0
-53 -71 0
-54 -72 0
-52 -73 0
-53 -74 0
-54 -75 0
-52 -79 0
-53 -80 0
-54 -81 0
-52 -85 0
-53 -86 0
-54 -87 0
-52 -106 0
-53 -107 0
-54 -108 0
-52 -112 0
-53 -113 0
-54 -114 0
-55 -58 0
-56 -59 0
-57 -60 0
-55 -64 0
-56 -65 0
-57 -66 0
-55 -67 0
-56 -68 0
-57 -69 0
-55 -70 0
-56 -71 0
-57 -72 0
-55 -73 0
-56 -74 0
-57 -75 0
-55 -79 0
-56 -80 0
-57 -81 0
-55 -82 0
-56 -83 0
-57 -84 0
-55 -97 0
-56 -98 0
-57 -99 0
-55 -100 0
-56 -101 0
-57 -102 0
-55 -103 0
-56 -104 0
-57 -105 0
-55 -109 0
-56 -110 0
-57 -111 0
-58 -64 0
-59 -65 0
-60 -66 0
-58 -67 0
-59 -68 0
-60 -69 0
-58 -73 0
-59 -74 0
-60 -75 0
-58 -79 0
-59 -80 0
-60 -81 0
-58 -85 0
-59 -86 0
-60 -87 0
-58 -91 0
-59 -92 0
-60 -93 0
-58 -97 0
-59 -98 0
-60 -99 0
-58 -100 0
-59 -101 0
-60 -102 0
-58 -103 0
-59 -104 0
-60 -105 0
-58 -106 0
-59 -107 0
-60 -108 0
-58 -109 0
-59 -110 0
-60 -111 0
-58 -118 0
-59 -119 0
-60 -120 0
-61 -64 0
-62 -65 0
-63 -66 0
-61 -67 0
-62 -68 0
-63 -69 0
-61 -73 0
-62 -74 0
-63 -75 0
-61 -82 0
-62 -83 0
-63 -84 0
-61 -100 0
-62 -101 0
-63 -102 0
-61 -103 0
-62 -104 0
-63 -105 0
-61 -106 0
-62 -107 0
-63 -108 0
-61 -109 0
-62 -110 0
-63 -111 0
-61 -112 0
-62 -113 0
-63 -114 0
-61 -115 0
-62 -116 0
-63 -117 0
-61 -118 0
-62 -119 0
-63 -120 0
-64 -70 0
-65 -71 0
-66 -72 0
-64 -73 0
-65 -74 0
-66 -75 0
-64 -82 0
-65 -83 0
-66 -84 0
-64 -88 0
-65 -89 0
-66 -90 0
-64 -94 0
-65 -95 0
-66 -96 0
-64 -100 0
-65 -101 0
-66 -102 0
-64 -103 0
-65 -104 0
-66 -105 0
-64 -106 0
-65 -107 0
-66 -108 0
-64 -109 0
-65 -110 0
-66 -111 0
-64 -112 0
-65 -113 0
-66 -114 0
-64 -115 0
-65 -116 0
-66 -117 0
-67 -79 0
-68 -80 0
-69 -81 0
-67 -94 0
-68 -95 0
-69 -96 0
-67 -100 0
-68 -101 0
-69 -102 0
-67 -106 0
-68 -107 0
-69 -108 0
-67 -112 0
-68 -113 0
-69 -114 0
-67 -118 0
-68 -119 0
-69 -120 0
-70 -88 0
-71 -89 0
-72 -90 0
-70 -94 0
-71 -95 0
-72 -96 0
-70 -100 0
-71 -101 0
-72 -102 0
-70 -103 0
-71 -104 0
-72 -105 0
-70 -109 0
-71 -110 0
-72 -111 0
-70 -112 0
-71 -113 0
-72 -114 0
-70 -118 0
-71 -119 0
-72 -120 0
-73 -76 0
-74 -77 0
-75 -78 0
-73 -82 0
-74 -83 0
-75 -84 0
-73 -97 0
-74 -98 0
-75 -99 0
-73 -103 0
-74 -104 0
-75 -105 0
-73 -106 0
-74 -107 0
-75 -108 0
-73 -115 0
-74 -116 0
-75 -117 0
-73 -118 0
-74 -119 0
-75 -120 0
-76 -82 0
-77 -83 0
-78 -84 0
-76 -85 0
-77 -86 0
-78 -87 0
-76 -91 0
-77 -92 0
-78 -93 0
-76 -94 0
-77 -95 0
-78 -96 0
-76 -100 0
-77 -101 0
-78 -102 0
-76 -112 0
-77 -113 0
-78 -114 0
-76 -115 0
-77 -116 0
-78 -117 0
-76 -118 0
-77 -119 0
-78 -120 0
-79 -82 0
-80 -83 0
-81 -84 0
-79 -85 0
-80 -86 0
-81 -87 0
-79 -88 0
-80 -89 0
-81 -90 0
-79 -91 0
-80 -92 0
-81 -93 0
-79 -94 0
-80 -95 0
-81 -96 0
-79 -97 0
-80 -98 0
-81 -99 0
-79 -100 0
-80 -101 0
-81 -102 0
-79 -112 0
-80 -113 0
-81 -114 0
-82 -94 0
-83 -95 0
-84 -96 0
-82 -97 0
-83 -98 0
-84 -99 0
-82 -100 0
-83 -101 0
-84 -102 0
-82 -103 0
-83 -104 0
-84 -105 0
-82 -109 0
-83 -110 0
-84 -111 0
-85 -88 0
-86 -89 0
-87 -90 0
-85 -100 0
-86 -101 0
-87 -102 0
-85 -106 0
-86 -107 0
-87 -108 0
-85 -112 0
-86 -113 0
-87 -114 0
-85 -118 0
-86 -119 0
-87 -120 0
-88 -91 0
-89 -92 0
-90 -93 0
-88 -97 0
-89 -98 0
-90 -99 0
-88 -100 0
-89 -101 0
-90 -102 0
-88 -103 0
-89 -104 0
-90 -105 0
-88 -109 0
-89 -110 0
-90 -111 0
-91 -94 0
-92 -95 0
-93 -96 0
-91 -97 0
-92 -98 0
-93 -99 0
-91 -109 0
-92 -110 0
-93 -111 0
-94 -103 0
-95 -104 0
-96 -105 0
-94 -109 0
-95 -110 0
-96 -111 0
-94 -112 0
-95 -113 0
-96 -114 0
-97 -100 0
-98 -101 0
-99 -102 0
-97 -103 0
-98 -104 0
-99 -105 0
-97 -106 0
-98 -107 0
-99 -108 0
-97 -109 0
-98 -110 0
-99 -111 0
-100 -103 0
-101 -104 0
-102 -105 0
-100 -109 0
-101 -110 0
-102 -111 0
-100 -112 0
-101 -113 0
-102 -114 0
-103 -112 0
-104 -113 0
-105 -114 0
-103 -115 0
-104 -116 0
-105 -117 0
-106 -109 0
-107 -110 0
-108 -111 0
-109 -112 0
-110 -113 0
-111 -114 0
-115 -118 0
-116 -119 0
-117 -120 0
